# Solution for model JobShopModel
# Objective value = 1180
y[0,0,0] 1
y[0,0,1] 0
y[0,1,0] 1
y[1,0,1] 1
y[1,1,0] 0
y[1,1,1] 1
y[2,0,0] 1
y[2,0,1] 0
y[2,1,0] 0
y[2,1,1] 1
x[0,0,0,0] 0
x[0,0,0,1] 1
x[0,0,1,0] 1
x[0,0,1,1] 0
x[0,0,2,0] 0
x[0,0,2,1] 0
x[0,1,0,0] 0
x[0,1,0,1] 0
x[0,1,1,0] 0
x[0,1,1,1] 0
x[0,1,2,0] 0
x[0,1,2,1] 0
x[1,0,0,0] 0
x[1,0,0,1] 0
x[1,0,1,0] 0
x[1,0,1,1] 1
x[1,0,2,0] 0
x[1,0,2,1] 1
x[1,1,0,0] 0
x[1,1,0,1] 0
x[1,1,1,0] 0
x[1,1,1,1] 0
x[1,1,2,0] 0
x[1,1,2,1] 0
x[2,0,0,0] 0
x[2,0,0,1] 0
x[2,0,1,0] 0
x[2,0,1,1] 0
x[2,0,2,0] 0
x[2,0,2,1] 0
x[2,1,0,0] 0
x[2,1,0,1] 0
x[2,1,1,0] 0
x[2,1,1,1] 0
x[2,1,2,0] 1
x[2,1,2,1] 0
s[0,0,0] 6.5300000000001808e+02
s[0,0,1] 0
s[0,1,0] 4.8000000000001666e+02
s[1,0,1] 902
s[1,1,0] 0
s[1,1,1] 480
s[2,0,0] 8.6200000000002342e+02
s[2,0,1] 0
s[2,1,0] 0
s[2,1,1] 587
Z_FO 1180
C57 1
C58 0
C59 1
C60 1
C61 0
